50

99 32 300
97 33 416
97 9 311
96 29 435
95 36 326
89 1 283
88 9 369
83 3 402
81 35 354
81 18 356
79 12 242
77 26 271
76 6 417
75 37 397
74 13 254
61 26 276
55 9 376
51 4 279
50 21 392
50 25 351
48 13 213
48 15 340
47 9 312
46 16 409
45 14 435
42 15 285
42 3 309
38 10 304
35 8 247
34 1 438
32 14 406
32 13 373
31 4 339
26 13 448
25 9 137
21 7 432
14 3 60
13 1 139
11 5 419
10 3 213
9 2 83
9 5 443
9 2 190
8 2 427
8 3 377
7 2 127
5 1 263
5 1 95
5 1 201
1 1 376
